<?xml version = "1.0" standalone="yes"?>
<!-- This file has been generated by DOcplex version 2.23.222  -->
<CPLEXSolution version="1.0">
 <header
   problemName="CVRP"
   objectiveValue="11243.2"
  />
 <variables>
  <variable name="x_0_3" index="2" value="1.00000"/>
  <variable name="x_0_4" index="3" value="1.00000"/>
  <variable name="x_0_5" index="4" value="1.00000"/>
  <variable name="x_0_7" index="6" value="1.00000"/>
  <variable name="x_0_9" index="8" value="1.00000"/>
  <variable name="x_0_11" index="10" value="1.00000"/>
  <variable name="x_0_14" index="13" value="1.00000"/>
  <variable name="x_0_15" index="14" value="1.00000"/>
  <variable name="x_0_18" index="17" value="1.00000"/>
  <variable name="x_0_19" index="18" value="1.00000"/>
  <variable name="x_0_21" index="20" value="1.00000"/>
  <variable name="x_1_0" index="21" value="1.00000"/>
  <variable name="x_2_1" index="43" value="1.00000"/>
  <variable name="x_3_0" index="63" value="1.00000"/>
  <variable name="x_4_16" index="99" value="1.00000"/>
  <variable name="x_5_0" index="105" value="1.00000"/>
  <variable name="x_6_0" index="126" value="1.00000"/>
  <variable name="x_7_17" index="163" value="1.00000"/>
  <variable name="x_8_0" index="168" value="1.00000"/>
  <variable name="x_9_0" index="189" value="1.00000"/>
  <variable name="x_10_8" index="218" value="1.00000"/>
  <variable name="x_11_0" index="231" value="1.00000"/>
  <variable name="x_12_6" index="258" value="1.00000"/>
  <variable name="x_13_10" index="283" value="1.00000"/>
  <variable name="x_14_0" index="294" value="1.00000"/>
  <variable name="x_15_12" index="327" value="1.00000"/>
  <variable name="x_16_0" index="336" value="1.00000"/>
  <variable name="x_17_2" index="359" value="1.00000"/>
  <variable name="x_18_20" index="397" value="1.00000"/>
  <variable name="x_19_0" index="399" value="1.00000"/>
  <variable name="x_20_0" index="420" value="1.00000"/>
  <variable name="x_21_13" index="454" value="1.00000"/>
  <variable name="u_1" index="462" value="47.00000"/>
  <variable name="u_2" index="463" value="35.00000"/>
  <variable name="u_3" index="464" value="24.00000"/>
  <variable name="u_4" index="465" value="11.00000"/>
  <variable name="u_5" index="466" value="37.00000"/>
  <variable name="u_6" index="467" value="47.00000"/>
  <variable name="u_7" index="468" value="23.00000"/>
  <variable name="u_8" index="469" value="47.00000"/>
  <variable name="u_9" index="470" value="47.00000"/>
  <variable name="u_10" index="471" value="22.00000"/>
  <variable name="u_11" index="472" value="44.00000"/>
  <variable name="u_12" index="473" value="37.00000"/>
  <variable name="u_13" index="474" value="16.00000"/>
  <variable name="u_14" index="475" value="25.00000"/>
  <variable name="u_15" index="476" value="18.00000"/>
  <variable name="u_16" index="477" value="47.00000"/>
  <variable name="u_17" index="478" value="29.00000"/>
  <variable name="u_18" index="479" value="38.00000"/>
  <variable name="u_19" index="480" value="43.00000"/>
  <variable name="u_20" index="481" value="47.00000"/>
  <variable name="u_21" index="482" value="4.00000"/>
 </variables>
</CPLEXSolution>
